#######################################
### Exact MIP solver for the HHCRSP ###
#######################################
-- Instance file: new-instances/HHCRSP_200_40_51_1.2_R_C.txt
-- Max threads: 4
-- Time limit: 999999 seconds
-- Use initial solution: No
Trivial flow violations prevented generating 339195 variables.
Version identifier: 20.1.0.0 | 2020-11-10 | 9bedb6d68
CPXPARAM_Threads                                 4
CPXPARAM_TimeLimit                               999999
Parallel mode: deterministic, using up to 4 threads for concurrent optimization:
 * Starting dual Simplex on 1 thread...
 * Starting Barrier on 3 threads...
Tried aggregator 1 time.
LP Presolve eliminated 20088 rows and 4780 columns.
Reduced LP has 365242 rows, 348299 columns, and 6157090 nonzeros.
Presolve time = 10.49 sec. (1430.43 ticks)
Symmetry aggregator did 543956 additional substitutions.

Iteration log . . .
Iteration:     1   Dual objective     =             0.000000
Iteration:   913   Dual objective     =           197.333333

Dual crossover.
  Dual:  Fixing 680 variables.
      679 DMoves:  Infeasibility  4.35096432e-13  Objective  1.98333333e+02
        0 DMoves:  Infeasibility  3.15530964e-13  Objective  1.98333333e+02
  Dual:  Pushed 56, exchanged 624.
  Primal:  Fixing 554 variables.
      553 PMoves:  Infeasibility  2.22044605e-16  Objective  1.98333333e+02
        0 PMoves:  Infeasibility  2.22044605e-16  Objective  1.98333333e+02
  Primal:  Pushed 460, exchanged 94.

Dual simplex solved model.


Solution status from MIP model:
-- Processing time: 17.605 sec.
-- Memory used: 400.103 MB
-- Best bound: inf
-- Obj value: 198.333
-- Gap: inf%
-- Total distance: 595
-- Total tardiness: 0
-- Largest tardiness: 0
